Minimize
  obj: x0 + x1 + x2 + x3 + x4 + x5 + x6 + x7 + x8 + x9 + x10

Subject To
  c0: x0 + x2 + x7 + x8 + x9 + x10 = 65
  c1: x1 + x2 + x3 + x4 + x9 = 36
  c2: x0 + x4 + x5 + x6 = 134
  c3: x3 + x7 + x8 + x9 = 37
  c4: x0 + x3 + x5 + x6 + x7 = 150
  c5: x0 + x1 + x2 + x4 + x8 = 42
  c6: x2 + x3 + x4 + x8 = 14
  c7: x0 + x1 + x2 + x4 + x6 + x7 + x8 = 176
  c8: x1 + x4 + x6 + x8 = 139

Bounds
  x0 >= 0
  x1 >= 0
  x2 >= 0
  x3 >= 0
  x4 >= 0
  x5 >= 0
  x6 >= 0
  x7 >= 0
  x8 >= 0
  x9 >= 0
  x10 >= 0

Generals
  x0 x1 x2 x3 x4 x5 x6 x7 x8 x9 x10

End
